(set-info :smt-lib-version 2.6)
(set-logic QF_UFLRA)
(set-info :source |
MathSat group

|)
(set-info :category "random")
(set-info :status unsat)
(declare-fun x0 () Real)
(declare-fun x1 () Real)
(declare-fun x2 () Real)
(declare-fun x3 () Real)
(declare-fun x4 () Real)
(declare-fun x5 () Real)
(declare-fun x6 () Real)
(declare-fun x7 () Real)
(declare-fun x8 () Real)
(declare-fun x9 () Real)
(declare-fun x10 () Real)
(declare-fun x11 () Real)
(declare-fun x12 () Real)
(declare-fun x13 () Real)
(declare-fun x14 () Real)
(declare-fun x15 () Real)
(declare-fun x16 () Real)
(declare-fun x17 () Real)
(declare-fun x18 () Real)
(declare-fun x19 () Real)
(declare-fun x20 () Real)
(declare-fun x21 () Real)
(declare-fun x22 () Real)
(declare-fun x23 () Real)
(declare-fun x24 () Real)
(declare-fun x25 () Real)
(declare-fun x26 () Real)
(declare-fun x27 () Real)
(declare-fun x28 () Real)
(declare-fun x29 () Real)
(declare-fun f0_1 (Real) Real)
(declare-fun f0_2 (Real Real) Real)
(declare-fun f0_3 (Real Real Real) Real)
(declare-fun f0_4 (Real Real Real Real) Real)
(declare-fun P0 () Bool)
(declare-fun P1 () Bool)
(declare-fun P2 () Bool)
(declare-fun P3 () Bool)
(declare-fun P4 () Bool)
(declare-fun P5 () Bool)
(declare-fun P6 () Bool)
(declare-fun P7 () Bool)
(declare-fun P8 () Bool)
(declare-fun P9 () Bool)
(declare-fun P10 () Bool)
(declare-fun P11 () Bool)
(declare-fun P12 () Bool)
(declare-fun P13 () Bool)
(declare-fun P14 () Bool)
(declare-fun P15 () Bool)
(declare-fun P16 () Bool)
(declare-fun P17 () Bool)
(declare-fun P18 () Bool)
(declare-fun P19 () Bool)
(declare-fun P20 () Bool)
(declare-fun P21 () Bool)
(declare-fun P22 () Bool)
(declare-fun P23 () Bool)
(declare-fun P24 () Bool)
(declare-fun P25 () Bool)
(declare-fun P26 () Bool)
(declare-fun P27 () Bool)
(declare-fun P28 () Bool)
(declare-fun P29 () Bool)
(assert (let ((?v_16 (<= (- (+ (* 2 x20) (* 23 x18)) (* 20 x7)) 0)) (?v_89 (* 14 x19))) (let ((?v_88 (< (- (- (* 17 x15) ?v_89) (* 35 x27)) 23)) (?v_29 (< (- (+ (* 24 x10) (* 29 x15)) (* 22 x1)) 10)) (?v_72 (< (- (- (* 16 x28) (* 36 x4)) (* 24 x1)) 36)) (?v_93 (< (+ (- (* 4 x9) (* 12 x20)) (* 22 x11)) 33)) (?v_96 (= (f0_1 x11) (f0_2 x9 x1))) (?v_2 (f0_1 x21)) (?v_13 (f0_1 x3))) (let ((?v_27 (distinct ?v_2 ?v_13)) (?v_52 (= x27 x21)) (?v_48 (f0_1 x20))) (let ((?v_124 (= ?v_48 x0)) (?v_4 (= x14 ?v_2)) (?v_84 (= x2 (f0_2 x10 x14))) (?v_45 (distinct x1 (f0_2 x7 x16))) (?v_112 (= x24 x7)) (?v_54 (= (f0_1 x27) (f0_1 x10))) (?v_142 (= ?v_2 (f0_2 x14 x19))) (?v_132 (distinct (f0_2 x6 x1) ?v_48)) (?v_6 (distinct (f0_2 x9 x3) (f0_2 x4 x4))) (?v_85 (distinct (f0_1 x1) (f0_1 x9))) (?v_92 (distinct x13 x27)) (?v_28 (= x8 x17)) (?v_3 (f0_1 x0))) (let ((?v_51 (= (f0_2 x15 x15) ?v_3)) (?v_58 (= x4 ?v_3)) (?v_70 (= (f0_2 x4 x12) (f0_2 x24 x10))) (?v_30 (f0_1 x13))) (let ((?v_109 (= (f0_1 x6) ?v_30)) (?v_17 (= (f0_2 x7 x17) ?v_3)) (?v_9 (distinct (f0_2 x4 x0) (f0_2 x25 x10))) (?v_104 (distinct (f0_2 x11 x21) (f0_1 x15))) (?v_39 (= x12 x22)) (?v_22 (= (f0_2 x11 x7) x3)) (?v_23 (= x17 ?v_13)) (?v_57 (distinct ?v_3 x27)) (?v_5 (= (f0_2 x10 x20) (f0_1 x8))) (?v_32 (= (f0_2 x21 x3) (f0_2 x29 x28))) (?v_20 (= x9 x22)) (?v_25 (distinct x3 ?v_30)) (?v_66 (not P11))) (let ((?v_106 (not ?v_57)) (?v_37 (not P20)) (?v_0 (not P22)) (?v_11 (not ?v_25)) (?v_47 (not P14)) (?v_15 (not P21)) (?v_137 (not ?v_28)) (?v_41 (not ?v_6)) (?v_10 (not ?v_22)) (?v_59 (not P17)) (?v_105 (not ?v_142)) (?v_67 (not P25)) (?v_154 (not P19)) (?v_50 (not P26)) (?v_31 (not ?v_4)) (?v_40 (not ?v_45)) (?v_44 (not ?v_5)) (?v_21 (not ?v_9)) (?v_42 (not P6)) (?v_65 (not P15)) (?v_77 (not ?v_88)) (?v_34 (not ?v_84)) (?v_79 (not ?v_17)) (?v_100 (not ?v_51)) (?v_99 (not P23)) (?v_19 (not P5)) (?v_147 (not ?v_20)) (?v_130 (not P16)) (?v_68 (not P1)) (?v_46 (not P2)) (?v_97 (not ?v_132)) (?v_63 (not ?v_32)) (?v_73 (not ?v_124)) (?v_75 (not ?v_52)) (?v_131 (not ?v_104)) (?v_82 (not ?v_58)) (?v_135 (not P4)) (?v_80 (not ?v_70)) (?v_156 (not P9)) (?v_91 (not ?v_72)) (?v_98 (not P8)) (?v_125 (not ?v_92)) (?v_146 (not P3)) (?v_101 (not ?v_85)) (?v_116 (not P0)) (?v_123 (not ?v_93)) (?v_128 (not ?v_96)) (?v_155 (not P13)) (?v_133 (not P10)) (?v_115 (not ?v_54)) (?v_118 (not P18)) (?v_138 (not ?v_29)) (?v_134 (not ?v_112)) (?v_113 (not P28)) (?v_152 (not P7))) (let ((?v_139 (or ?v_34 ?v_112)) (?v_141 (not ?v_16)) (?v_117 (not ?v_23)) (?v_145 (not ?v_39)) (?v_140 (not P12)) (?v_153 (not P27)) (?v_136 (not ?v_109)) (?v_158 (or P18 ?v_37)) (?v_149 (not P24)) (?v_144 (not P29)) (?v_151 (not ?v_27)) (?v_14 (distinct (- (- (* 2 x27) 0) (* 2 x16)) 0)) (?v_107 (< (+ (- 0 (* 28 x6)) (* 21 x5)) 11)) (?v_7 (<= (- 0 (* 37 x26)) 8)) (?v_49 (distinct (+ (* 6 x24) (* 16 x8) (* 26 x25)) 37))) (let ((?v_87 (not ?v_49)) (?v_18 (not ?v_14)) (?v_143 (not ?v_7)) (?v_119 (< (- (- (* 13 x9) (* 29 x12)) 0) 44))) (let ((?v_121 (not ?v_119)) (?v_126 (not ?v_107)) (?v_35 (< (+ (- (* (- 29) x18) (* 21 x22)) x12) (- 40)))) (let ((?v_8 (not ?v_35)) (?v_64 (< (- (- (* (- 5) x0) (* 33 x8)) (* 27 x2)) (- 2)))) (let ((?v_26 (not ?v_64)) (?v_71 (<= (- (+ (* (- 41) x5) (* 40 x20)) (* 40 x28)) 24))) (let ((?v_38 (not ?v_71)) (?v_55 (<= (+ (- (* (- 5) x21) (* 3 x24)) (* 21 x17)) (- 38))) (?v_24 (< (- (+ x22 (* 6 x22)) (* 5 x10)) (- 36))) (?v_114 (<= (- (- (* (- 6) x8) (* 27 x24)) (* 28 x5)) (- 39)))) (let ((?v_1 (not ?v_114)) (?v_12 (<= (+ (- (* (- 2) x24) (* 10 x29)) (* 22 x17)) (- 44))) (?v_36 (< (- (* (- 3) x0) (* 39 x29)) (- 26))) (?v_53 (distinct (- (+ (* (- 37) x1) (* 13 x10)) x29) (- 37))) (?v_102 (< (- (- (* 19 x1) (* 18 x15)) (* 26 x4)) (- 36)))) (let ((?v_33 (not ?v_102)) (?v_56 (not ?v_12)) (?v_61 (<= (+ (- (* 20 x25) (* 8 x8)) (* 42 x23)) (- 5))) (?v_43 (= (- (* 3 x3) (* 32 x19)) (- 36))) (?v_127 (< (+ (- (* 11 x0) (* 7 x17)) (* 14 x7)) (- 18)))) (let ((?v_78 (not ?v_127)) (?v_76 (not ?v_36)) (?v_83 (<= (- (- (* (- 30) x3) (* 12 x28)) (* 37 x27)) 0)) (?v_69 (= (- (- (* (- 28) x11) (* 36 x28)) (* 32 x12)) 20)) (?v_81 (< (+ (- (* (- 39) x19) (* 13 x16)) (* 40 x6)) (- 33)))) (let ((?v_60 (not ?v_81)) (?v_62 (not ?v_53)) (?v_103 (not ?v_55)) (?v_120 (not ?v_43)) (?v_86 (< (- (* 14 x23) (* 26 x27)) (- 31)))) (let ((?v_111 (not ?v_86)) (?v_122 (not ?v_69)) (?v_74 (<= (- (+ (* (- 11) x8) (* 9 x17)) (* 4 x20)) (- 38)))) (let ((?v_129 (not ?v_74)) (?v_148 (<= (+ (- (* 6 x4) (* 2 x17)) (* 24 x2)) (- 24)))) (let ((?v_90 (not ?v_148)) (?v_110 (not ?v_83)) (?v_150 (or ?v_15 ?v_83)) (?v_95 (distinct (+ (- (* (- 41) x21) ?v_89) (* 40 x15)) 37))) (let ((?v_94 (not ?v_95)) (?v_108 (not ?v_61)) (?v_157 (not ?v_24))) (and (and (and (and (and (and (and (and (and (and (and (and (and (and (and (and (and (and (and (and (and (and (and (and (and (and (and (and (and (and (and (and (and (and (and (and (and (and (and (and (and (and (and (and (and (and (and (and (and (and (and (and (and (and (and (and (and (and (and (and (and (and (and (and (and (and (and (and (and (and (and (and (and (and (and (and (and (and (and (and (and (and (and (and (and (and (and (and (and (and (and (and (and (and (and (and (and (and (and (and (and (and (and (and (and (and (and (and (and (and (and (and (and (and (and (and (and (and (and (and (and (and (and (and (and (and (and (and (and (and (and (and (and (and (and (and (and (and (and (and (and (and (and (and (and (and (and (and (and (and (and (and (and (and (and (and (and (and (and (and (and (and (and (and (and (and (and (and (and (and (and (and (and (and (and (and (and (and (and (and (and (and (and (and (and (and (and (and (and (and (and (and (and (and (and (and (and (and (and (and (and (and (and (and (and (and (and (and (and (and (and (and (and (and (and (and (and (and (and (and (and (and (and (and (and (and (and (and (and (and (and (and (and (and (and (and (and (and (and (and (and (and (and (and (and (and (and (and (and (and (and (and (and (and (and (and (and (and (and (and (and (and (and (and (and (and (and (and (and (and (and (and (and (and (and (and (and (and (and (and (and (and (and (and (and (and (and (and (and (and (and (and (and (and (and (and (and (and (and (and (and (and (and (and (and (and (and (and (and (and (and (and (and (and (and (and (and (and (and (and (and (and (and (and (and (and (and (and (and (and (and (and (and (and (and (and (and (and (and (and (and (and (and (and (and (and (and (and (and (and (and (and (and (and (and (and (and (and (and (and (and (and (and (and (and (and (and (and (and (and (and (and (and (and (and (and (and (and (and (and (and (and (and (and (and (and (and (and (and (and (and (and (and (and (and (and (and (and (and (and (and (and (and (and (and (and (and (and (and (and (and (and (and (and (and (and (and (and (and (and (and (and (and (and (and (and (and (and (and (and (and (and (and (and (and (and (and (and (and (and (and (and (and (and (and (and (and (and (and (or (or ?v_66 ?v_106) ?v_14) (or (or ?v_8 P12) ?v_37)) (or (or ?v_0 ?v_11) ?v_26)) (or (or ?v_47 ?v_5) ?v_15)) (or (or ?v_38 ?v_107) ?v_55)) (or (or ?v_137 ?v_24) ?v_72)) (or (or ?v_1 ?v_41) ?v_10)) (or (or ?v_12 ?v_4) ?v_0)) (or (or P26 ?v_1) ?v_59)) (or (or ?v_105 P5) ?v_67)) (or (or ?v_36 ?v_154) ?v_50)) (or (or ?v_23 ?v_58) ?v_31)) (or (or ?v_7 ?v_40) ?v_29)) (or (or ?v_87 ?v_0) P27)) (or (or P14 ?v_16) ?v_44)) (or (or ?v_21 ?v_6) ?v_42)) (or (or ?v_70 ?v_7) P5)) (or (or P9 ?v_8) ?v_65)) (or (or ?v_9 ?v_96) ?v_52)) (or (or ?v_77 ?v_10) ?v_34)) (or (or ?v_53 ?v_11) ?v_33)) (or (or ?v_56 ?v_79) ?v_10)) (or (or ?v_27 P8) ?v_18)) (or (or P5 ?v_100) ?v_61)) (or (or ?v_99 ?v_15) P7)) (or (or ?v_43 ?v_16) ?v_32)) (or (or ?v_17 ?v_19) ?v_147)) (or (or ?v_18 ?v_130) ?v_19)) (or (or ?v_39 ?v_20) ?v_21)) (or (or P4 ?v_22) P8)) (or (or ?v_78 ?v_23) ?v_22)) (or (or ?v_9 ?v_24) ?v_25)) (or (or ?v_26 ?v_68) ?v_27)) (or (or P24 ?v_46) ?v_26)) (or (or P5 ?v_28) ?v_29)) (or (or ?v_109 ?v_54) ?v_31)) (or (or P8 ?v_29) ?v_32)) (or (or ?v_15 P29) ?v_33)) (or (or P27 P16) ?v_34)) (or (or ?v_35 ?v_22) ?v_76)) (or (or ?v_9 ?v_37) ?v_1)) (or (or ?v_38 ?v_39) ?v_10)) (or (or ?v_40 ?v_41) ?v_42)) (or (or ?v_83 ?v_97) ?v_10)) (or (or P23 ?v_69) P16)) (or (or ?v_22 ?v_60) ?v_43)) (or (or ?v_44 ?v_45) ?v_35)) (or (or ?v_35 ?v_46) ?v_29)) (or (or ?v_63 ?v_47) ?v_73)) (or (or ?v_12 ?v_49) ?v_27)) (or (or ?v_50 P6) ?v_37)) (or (or ?v_51 ?v_25) ?v_75)) (or (or ?v_19 P9) ?v_62)) (or (or ?v_54 ?v_103) P3)) (or (or ?v_56 ?v_35) ?v_131)) (or (or ?v_57 ?v_25) ?v_85)) (or (or P19 P16) ?v_82)) (or (or ?v_59 ?v_60) ?v_61)) (or (or ?v_62 ?v_63) ?v_7)) (or (or ?v_64 ?v_120) ?v_54)) (or (or ?v_65 P19) ?v_66)) (or (or ?v_135 ?v_67) ?v_68)) (or (or P7 ?v_111) ?v_122)) (or (or ?v_47 P2) ?v_80)) (or (or ?v_41 ?v_156) ?v_23)) (or (or ?v_71 ?v_129) ?v_91)) (or (or ?v_98 ?v_16) ?v_73)) (or (or ?v_74 P6) ?v_75)) (or (or ?v_76 ?v_66) ?v_77)) (or (or ?v_78 ?v_79) ?v_125)) (or (or ?v_49 ?v_80) ?v_8)) (or (or ?v_63 ?v_143) ?v_10)) (or (or ?v_17 ?v_57) ?v_81)) (or (or ?v_58 ?v_32) ?v_7)) (or (or ?v_82 ?v_90) ?v_146)) (or (or ?v_23 ?v_14) ?v_9)) (or (or ?v_65 ?v_110) ?v_70)) (or (or ?v_84 ?v_101) ?v_59)) (or (or ?v_17 ?v_76) ?v_86)) (or (or ?v_16 P6) ?v_116)) (or (or ?v_87 ?v_88) ?v_65)) (or ?v_150 ?v_16)) (or (or ?v_94 P10) ?v_53)) (or (or P27 ?v_77) ?v_9)) (or (or ?v_90 ?v_123) ?v_91)) (or (or ?v_63 ?v_61) ?v_92)) (or (or ?v_80 P4) ?v_93)) (or (or ?v_14 ?v_94) P15)) (or (or ?v_95 ?v_39) ?v_35)) (or (or ?v_128 ?v_64) ?v_39)) (or (or ?v_108 ?v_155) ?v_97)) (or (or ?v_98 ?v_99) ?v_100)) (or (or ?v_88 ?v_101) ?v_57)) (or (or ?v_133 ?v_94) ?v_102)) (or (or ?v_34 ?v_60) ?v_35)) (or (or ?v_86 ?v_90) ?v_92)) (or (or ?v_115 ?v_14) P6)) (or (or ?v_43 ?v_118) ?v_25)) (or (or ?v_64 ?v_15) ?v_101)) (or (or ?v_93 P6) ?v_138)) (or (or ?v_92 ?v_11) P11)) (or (or ?v_96 ?v_82) ?v_98)) (or (or ?v_18 ?v_103) ?v_74)) (or (or P6 ?v_104) ?v_105)) (or (or ?v_19 P17) ?v_10)) (or (or ?v_47 ?v_97) ?v_106)) (or (or ?v_46 ?v_119) ?v_103)) (or (or ?v_56 ?v_7) ?v_107)) (or (or ?v_134 P4) ?v_113)) (or (or ?v_44 ?v_58) ?v_108)) (or (or ?v_36 ?v_104) ?v_106)) (or (or ?v_57 ?v_19) ?v_1)) (or (or ?v_38 ?v_20) ?v_67)) (or (or ?v_109 P13) ?v_80)) (or (or ?v_152 ?v_110) P11)) (or (or ?v_111 ?v_12) ?v_87)) (or ?v_139 ?v_101)) (or (or ?v_113 ?v_141) P8)) (or (or ?v_88 ?v_93) ?v_104)) (or (or ?v_114 ?v_87) ?v_40)) (or (or P7 ?v_87) P27)) (or (or ?v_40 ?v_28) ?v_115)) (or (or ?v_77 ?v_29) ?v_109)) (or (or P21 P15) P5)) (or (or ?v_105 ?v_11) P5)) (or (or ?v_116 ?v_117) ?v_102)) (or (or ?v_94 ?v_85) ?v_103)) (or (or ?v_22 ?v_6) ?v_117)) (or (or P28 ?v_60) ?v_98)) (or (or ?v_38 P19) ?v_39)) (or (or ?v_118 ?v_88) P4)) (or (or ?v_11 ?v_121) ?v_87)) (or (or ?v_120 ?v_121) ?v_42)) (or (or ?v_39 ?v_7) ?v_122)) (or (or ?v_126 ?v_123) ?v_14)) (or (or ?v_54 ?v_34) ?v_47)) (or (or ?v_43 ?v_46) ?v_25)) (or (or ?v_12 ?v_52) P22)) (or (or ?v_145 P25) ?v_107)) (or (or ?v_72 ?v_124) ?v_20)) (or (or ?v_80 ?v_69) ?v_140)) (or (or ?v_104 ?v_125) ?v_103)) (or (or ?v_19 ?v_65) ?v_32)) (or (or ?v_91 ?v_75) ?v_68)) (or (or P11 P5) ?v_153)) (or (or P24 ?v_64) ?v_126)) (or (or ?v_81 ?v_127) ?v_99)) (or (or ?v_98 ?v_66) P3)) (or (or P15 ?v_98) ?v_128)) (or (or ?v_23 ?v_113) ?v_136)) (or (or ?v_126 ?v_117) ?v_62)) (or (or ?v_126 ?v_33) ?v_101)) (or (or ?v_20 ?v_118) ?v_1)) (or (or ?v_74 P4) ?v_67)) (or (or ?v_67 ?v_122) ?v_11)) (or (or ?v_24 ?v_37) ?v_41)) (or (or ?v_118 ?v_126) ?v_4)) (or (or P18 ?v_104) ?v_66)) (or (or ?v_82 ?v_64) ?v_129)) (or (or ?v_68 ?v_130) ?v_37)) (or (or P6 ?v_11) ?v_62)) (or (or P24 ?v_129) P16)) (or (or ?v_25 P6) P0)) (or (or ?v_77 ?v_59) ?v_72)) (or (or ?v_57 ?v_131) ?v_15)) (or (or ?v_75 ?v_106) P16)) (or (or ?v_9 P13) ?v_71)) (or (or ?v_130 ?v_17) ?v_132)) (or (or ?v_39 ?v_117) ?v_123)) (or ?v_158 ?v_82)) (or (or P16 P2) ?v_67)) (or (or P14 ?v_88) ?v_19)) (or (or ?v_18 ?v_133) ?v_47)) (or (or P3 P3) ?v_122)) (or (or ?v_11 ?v_134) ?v_28)) (or (or ?v_63 ?v_120) ?v_31)) (or (or ?v_66 ?v_135) ?v_37)) (or (or ?v_39 ?v_28) P5)) (or (or ?v_136 ?v_78) ?v_80)) (or (or ?v_17 ?v_7) ?v_38)) (or (or ?v_53 P15) ?v_16)) (or (or ?v_36 ?v_66) ?v_1)) (or (or ?v_102 ?v_58) ?v_73)) (or (or P28 P27) ?v_123)) (or (or P23 P24) ?v_101)) (or (or ?v_91 ?v_37) ?v_56)) (or (or P27 ?v_137) P7)) (or (or ?v_31 P24) ?v_138)) (or (or ?v_108 ?v_21) P9)) (or (or ?v_149 ?v_94) ?v_123)) (or (or ?v_105 ?v_58) ?v_100)) (or (or ?v_103 ?v_49) ?v_77)) (or ?v_139 ?v_15)) (or (or ?v_25 P7) ?v_65)) (or (or ?v_4 ?v_144) ?v_36)) (or (or ?v_121 ?v_57) P28)) (or (or P17 ?v_136) ?v_62)) (or (or ?v_36 ?v_101) ?v_140)) (or (or ?v_0 ?v_121) ?v_75)) (or (or ?v_97 ?v_36) ?v_135)) (or (or ?v_73 ?v_102) ?v_134)) (or (or P7 ?v_54) ?v_104)) (or (or ?v_105 ?v_42) P9)) (or (or ?v_21 ?v_134) ?v_108)) (or (or ?v_51 ?v_14) ?v_123)) (or (or ?v_87 ?v_141) ?v_33)) (or (or ?v_5 ?v_137) ?v_140)) (or (or ?v_34 ?v_68) ?v_107)) (or (or ?v_44 ?v_142) ?v_19)) (or (or P21 ?v_109) ?v_96)) (or (or ?v_127 ?v_17) ?v_88)) (or (or ?v_75 P21) ?v_104)) (or (or ?v_143 ?v_142) ?v_80)) (or (or ?v_41 ?v_126) ?v_90)) (or (or ?v_128 ?v_95) ?v_144)) (or (or P2 P27) ?v_20)) (or (or P29 ?v_38) ?v_101)) (or (or ?v_39 ?v_77) ?v_47)) (or (or P12 ?v_42) ?v_145)) (or (or ?v_124 ?v_146) ?v_128)) (or (or ?v_14 ?v_64) ?v_124)) (or (or ?v_92 ?v_38) P4)) (or (or ?v_94 P9) ?v_141)) (or (or ?v_146 P29) ?v_67)) (or (or ?v_151 ?v_66) ?v_110)) (or (or ?v_91 P4) ?v_62)) (or (or ?v_62 ?v_121) ?v_140)) (or (or ?v_103 ?v_103) ?v_99)) (or (or ?v_142 P11) ?v_16)) (or (or ?v_51 ?v_45) ?v_147)) (or (or ?v_113 ?v_85) ?v_127)) (or (or ?v_107 P21) ?v_106)) (or (or ?v_66 ?v_0) ?v_91)) (or (or ?v_24 P14) ?v_12)) (or (or ?v_65 ?v_52) ?v_123)) (or (or ?v_148 ?v_18) ?v_106)) (or (or ?v_46 ?v_63) ?v_149)) (or (or ?v_100 ?v_122) ?v_49)) (or (or ?v_11 ?v_83) P3)) (or (or ?v_118 ?v_40) ?v_106)) (or (or ?v_61 ?v_6) ?v_29)) (or (or ?v_27 ?v_157) ?v_11)) (or ?v_150 ?v_132)) (or (or ?v_31 ?v_11) ?v_52)) (or (or ?v_7 ?v_32) P27)) (or (or ?v_121 ?v_18) ?v_94)) (or (or P11 ?v_88) ?v_90)) (or (or ?v_127 ?v_117) P26)) (or (or ?v_29 ?v_124) ?v_28)) (or (or ?v_51 ?v_16) ?v_83)) (or (or ?v_105 ?v_129) ?v_71)) (or (or ?v_107 ?v_151) ?v_147)) (or (or ?v_77 ?v_135) ?v_41)) (or (or ?v_102 P27) ?v_56)) (or (or P10 P10) ?v_72)) (or (or ?v_45 ?v_23) ?v_42)) (or (or ?v_145 ?v_124) ?v_56)) (or (or P17 P29) ?v_40)) (or (or ?v_32 ?v_98) ?v_74)) (or (or P26 ?v_152) ?v_145)) (or (or ?v_136 ?v_51) ?v_67)) (or (or ?v_56 ?v_11) ?v_86)) (or (or ?v_0 ?v_104) P2)) (or (or ?v_97 P28) ?v_145)) (or (or ?v_43 P17) P22)) (or (or P17 ?v_20) ?v_133)) (or (or ?v_111 ?v_11) ?v_98)) (or (or ?v_40 ?v_110) ?v_12)) (or (or ?v_26 ?v_153) ?v_133)) (or (or ?v_151 ?v_143) ?v_108)) (or (or ?v_122 ?v_12) ?v_66)) (or (or ?v_135 ?v_50) ?v_118)) (or (or ?v_154 P4) ?v_105)) (or (or ?v_66 ?v_123) ?v_116)) (or (or ?v_99 ?v_112) ?v_63)) (or (or ?v_127 ?v_78) ?v_21)) (or (or ?v_143 ?v_85) ?v_117)) (or (or ?v_72 ?v_145) P6)) (or (or ?v_155 P11) ?v_82)) (or (or ?v_87 P23) ?v_90)) (or (or ?v_62 ?v_43) ?v_54)) (or (or ?v_39 ?v_12) ?v_38)) (or (or ?v_99 P16) ?v_123)) (or (or P0 ?v_95) P19)) (or (or ?v_123 P24) ?v_103)) (or (or ?v_99 ?v_143) ?v_44)) (or (or ?v_18 ?v_156) ?v_24)) (or (or ?v_8 ?v_131) ?v_99)) (or (or ?v_157 ?v_39) ?v_70)) (or (or ?v_152 ?v_0) ?v_111)) (or (or ?v_9 ?v_120) ?v_15)) (or (or ?v_15 ?v_138) ?v_88)) (or (or ?v_113 ?v_110) ?v_111)) (or (or ?v_32 ?v_95) ?v_115)) (or (or ?v_33 ?v_93) ?v_11)) (or (or ?v_106 P8) ?v_92)) (or (or ?v_8 ?v_54) ?v_40)) (or (or ?v_38 ?v_78) ?v_40)) (or (or ?v_75 ?v_88) ?v_109)) (or (or ?v_124 ?v_122) ?v_127)) (or (or ?v_57 P27) ?v_67)) (or (or ?v_42 ?v_128) ?v_54)) (or (or ?v_112 ?v_149) ?v_32)) (or (or ?v_118 P25) ?v_61)) (or (or P15 ?v_84) ?v_49)) (or (or ?v_20 ?v_86) P28)) (or (or P1 ?v_144) P14)) (or (or P12 ?v_93) P14)) (or (or ?v_113 P28) P13)) (or (or ?v_51 ?v_151) ?v_74)) (or (or ?v_46 ?v_79) ?v_50)) (or (or ?v_75 ?v_59) ?v_44)) (or (or ?v_28 ?v_156) ?v_154)) (or (or ?v_71 ?v_135) ?v_29)) (or (or ?v_6 P7) ?v_61)) (or (or ?v_115 ?v_64) ?v_103)) (or (or ?v_51 ?v_98) P6)) (or (or ?v_109 ?v_133) ?v_98)) (or (or ?v_145 ?v_90) ?v_101)) (or (or ?v_14 ?v_136) ?v_70)) (or (or ?v_132 ?v_63) ?v_102)) (or (or ?v_95 ?v_82) ?v_152)) (or (or P9 ?v_57) ?v_41)) (or (or ?v_27 ?v_106) ?v_14)) (or (or ?v_28 ?v_83) ?v_156)) (or (or P3 ?v_126) ?v_110)) (or (or ?v_59 P8) ?v_21)) (or (or ?v_36 ?v_103) ?v_38)) (or (or ?v_53 ?v_55) ?v_1)) (or (or ?v_127 ?v_18) ?v_21)) (or (or P27 ?v_70) ?v_26)) (or (or ?v_45 ?v_27) ?v_119)) (or (or ?v_102 ?v_68) P20)) (or (or ?v_68 ?v_44) ?v_21)) (or (or ?v_119 ?v_120) ?v_138)) (or (or P5 ?v_98) ?v_54)) (or (or P12 ?v_45) ?v_108)) (or (or ?v_38 ?v_131) P29)) (or (or ?v_51 ?v_117) ?v_32)) (or (or ?v_27 P29) ?v_105)) (or (or ?v_31 P3) ?v_36)) (or (or ?v_110 P15) ?v_111)) (or (or ?v_73 ?v_95) ?v_149)) (or (or ?v_1 ?v_33) ?v_68)) (or (or ?v_126 ?v_115) P2)) (or (or ?v_145 ?v_24) P3)) (or (or ?v_10 ?v_26) ?v_66)) (or (or ?v_107 ?v_24) P14)) (or (or P1 ?v_32) ?v_62)) (or (or P27 ?v_50) ?v_121)) (or (or ?v_75 ?v_38) ?v_113)) (or (or P29 P26) ?v_81)) (or (or ?v_129 P10) ?v_23)) (or (or ?v_12 ?v_25) ?v_39)) (or (or ?v_45 ?v_113) ?v_25)) (or (or ?v_140 ?v_18) ?v_40)) (or (or ?v_15 ?v_155) P19)) (or (or ?v_146 P7) ?v_53)) (or (or ?v_47 ?v_156) ?v_22)) (or (or ?v_134 P29) P11)) (or (or P23 ?v_8) ?v_40)) (or (or ?v_49 ?v_20) ?v_4)) (or (or ?v_33 ?v_101) ?v_105)) (or (or ?v_0 ?v_156) ?v_70)) (or (or P6 P12) P13)) (or (or ?v_8 ?v_111) ?v_66)) (or (or ?v_90 ?v_121) ?v_135)) (or (or P27 ?v_10) ?v_12)) (or (or ?v_5 ?v_80) ?v_140)) (or (or ?v_137 ?v_92) P3)) (or ?v_158 ?v_29)) (or (or ?v_42 ?v_27) P7)) (or (or ?v_65 ?v_142) ?v_18)) (or (or ?v_68 ?v_133) ?v_40)) (or (or P13 ?v_49) ?v_11)) (or (or ?v_41 ?v_49) ?v_70)) (or (or ?v_78 ?v_147) ?v_92)) (or (or ?v_25 ?v_23) ?v_33)) (or (or ?v_7 P23) ?v_34)) (or (or P14 ?v_38) ?v_155)) (or (or ?v_82 ?v_105) ?v_79)) (or (or ?v_79 ?v_112) ?v_32)) (or (or ?v_156 ?v_90) ?v_46)) (or (or ?v_83 ?v_49) P25)) (or (or ?v_123 ?v_157) P27)) (or (or ?v_92 P16) ?v_45)) (or (or ?v_82 ?v_56) P29)) (or (or ?v_43 ?v_53) P18)) (or (or ?v_12 ?v_98) ?v_9)) (or (or ?v_154 P6) ?v_129)) (or (or ?v_44 ?v_112) ?v_46)) (or (or ?v_154 ?v_130) ?v_22)) (or (or ?v_26 ?v_61) ?v_147)) (or (or ?v_39 ?v_137) ?v_102)) (or (or ?v_6 ?v_16) ?v_103)) (or (or ?v_101 P10) ?v_15)) (or (or ?v_43 ?v_8) ?v_101)) (or (or ?v_119 ?v_155) P15)) (or (or ?v_44 ?v_138) ?v_106)) (or (or ?v_73 P19) ?v_29)) (or (or ?v_86 ?v_7) P22)) (or (or ?v_51 ?v_12) ?v_111)) (or (or ?v_23 P4) ?v_147)) (or (or ?v_132 ?v_91) ?v_106)) (or (or P6 ?v_56) ?v_26)) (or (or ?v_45 ?v_85) ?v_147)) (or (or ?v_32 ?v_15) ?v_49)) (or (or ?v_52 ?v_64) ?v_0)) (or (or ?v_137 P26) P9)) (or (or ?v_135 ?v_93) ?v_35)) (or (or ?v_86 ?v_39) ?v_9)) (or (or ?v_41 ?v_117) ?v_18)) (or (or ?v_117 ?v_53) ?v_29)) (or (or ?v_40 ?v_113) ?v_124)) (or (or ?v_46 P23) ?v_80)) (or (or P20 ?v_90) P6)) (or (or P23 ?v_93) ?v_134)) (or (or P21 ?v_80) ?v_95)) (or (or ?v_17 ?v_21) ?v_58)) (or (or ?v_7 P3) ?v_1)) (or (or ?v_72 ?v_22) ?v_53)) (or (or ?v_103 ?v_29) ?v_40)) (or (or ?v_133 P17) ?v_141)) (or (or P9 ?v_67) ?v_136)) (or (or ?v_21 ?v_24) ?v_54)) (or (or P17 ?v_87) ?v_73)) (or (or ?v_142 ?v_149) ?v_157)) (or (or ?v_66 ?v_115) P21)) (or (or ?v_16 ?v_20) P11)) (or (or P10 ?v_62) ?v_26)) (or (or ?v_93 ?v_21) ?v_19)) (or (or ?v_149 P19) P0)) (or (or ?v_90 ?v_86) P12)) (or (or ?v_101 ?v_112) ?v_78)) (or (or ?v_49 ?v_108) ?v_102)) (or (or ?v_69 ?v_119) P5)) (or (or ?v_49 ?v_14) ?v_16)) (or (or P22 ?v_83) ?v_24)) (or (or ?v_27 ?v_80) ?v_34)) (or (or ?v_104 ?v_21) ?v_55)) (or (or ?v_129 ?v_10) ?v_135)) (or (or ?v_56 ?v_119) ?v_31)) (or (or P10 ?v_21) ?v_103)) (or (or ?v_99 ?v_40) ?v_152)) (or (or P16 P26) ?v_91)) (or (or ?v_98 ?v_51) ?v_21)) (or (or ?v_63 ?v_7) P8)) (or (or ?v_98 ?v_9) ?v_68)) (or (or ?v_137 ?v_88) P27)) (or (or ?v_43 ?v_105) ?v_124))))))))))))))))))))))))
(check-sat)
(exit)
